100 8
227 280
873 498
175 677
583 260
78 512
499 546
259 86
907 365
957 810
547 680
784 212
552 545
984 757
983 578
579 666
179 653
526 143
194 566
327 730
433 202
859 306
210 215
166 344
301 235
196 232
426 579
432 606
190 556
543 641
310 317
94 567
641 231
374 592
118 439
535 496
48 326
867 340
193 111
126 528
185 521
33 582
801 834
487 323
29 660
376 725
567 176
191 213
298 405
523 615
122 375
388 587
880 394
89 631
339 353
77 433
75 585
839 859
221 336
172 334
513 300
632 229
974 865
503 495
319 643
818 772
478 552
196 710
754 112
546 193
259 139
557 579
610 602
200 119
140 170
840 695
887 773
906 872
118 522
493 595
244 355
810 778
11 681
908 332
235 143
341 631
813 931
965 871
140 526
69 658
903 633
347 276
108 267
514 161
842 719
506 562
274 262
294 673
503 545
329 376
581 713
